FEATURES = {templates,uploadYourOwnImages,cloudStorage,folders,exclusiveAccessToPhotosIllustrattionsAndTemplates,magicResize,uploadCustomFonts,setBrandColorPalletes,saveTemplates,designSearch,createDesignsWithCustomDimesions,downloadDesignsWithTransparentBackground,exportDesignsAsAnimatedGIF,prioritySupport,teamAdministrativeControls,teamPricingPlans,onboardingIncentives,dedicatedAccountManager,99.9UptimeSLA};
USAGE_LIMITS = {cloudStorageLimit,foldersLimit};
PLANS = {FREE,PRO,ENTERPRISE};
ADDONS = {};

plans_prices = [0.0,12.95,0.0];
addons_prices = [];

plans_features = array2d(PLANS, FEATURES, [
    % FREE
    1,1,1,1,0,0,0,0,0,0,0,0,0,0,0,0,0,0,0,
    % PRO
    1,1,1,1,1,1,1,1,1,1,1,0,1,1,0,0,0,0,0,
    % ENTERPRISE
    1,1,1,1,1,1,1,1,1,1,1,0,1,1,1,1,1,1,1
]);
plans_usage_limits = array2d(PLANS, USAGE_LIMITS, [
    % FREE
    1,2,
    % PRO
    1000000000,1000000000,
    % ENTERPRISE
    1000000000,1000000000
]);

linked_features = array2d(USAGE_LIMITS, FEATURES, [
    % cloudStorageLimit
    0,0,1,0,0,0,0,0,0,0,0,0,0,0,0,0,0,0,0,
    % foldersLimit
    0,0,0,1,0,0,0,0,0,0,0,0,0,0,0,0,0,0,0
]);

addons_features = array2d(ADDONS, FEATURES, [
]);
addons_usage_limits = array2d(ADDONS, USAGE_LIMITS, [
]);
addons_usage_limits_extensions = array2d(ADDONS, USAGE_LIMITS, [
]);
addons_available_for = array2d(ADDONS, PLANS, [
]);

addons_depends_on = array2d(ADDONS, ADDONS, [
]);